/* Objective function */
min: 600r11 + 300r12 + 200r31 + 100r32 + 800r41 +
     400r42 + 1600r51 + 800r52 + 180r61 + 90r62 +
     200r81 + 100r82 + 1000r101 + 500r102 + 600r111 + 300r112;

tf <= 23;

/* Variable bounds */
arco_i1: t1>=ti+0;
arco_13: t3>=t1+6-r11-r12;
arco_3f: tf>=t3+2-r31-r32;
arco_i4: t4>=ti+0;
arco_43: t3>=t4+9-r41-r42;
arco_45: t5>=t4+9-r41-r42;
arco_53: t3>=t5+4-r51-r52;
arco_5f: tf>=t5+4-r51-r52;
arco_i6: t6>=ti+0;
arco_67: t7>=t6+5-r61-r62;
arco_74: t4>=t7+6;
arco_78: t8>=t7+6;
arco_85: t5>=t8+4-r81-r82;
arco_89: t9>=t8+4-r81-r82;
arco_9f: tf>=t9+2;
arco_610: t10>=t6+5-r61-r62;
arco_108: t8>=t10+8-r101-r102;
arco_1011: t11>=t10+8-r101-r102;
arco_119: t9>=t11+7-r111-r112;

r11m=0.5;
r31m=0.5;
r41m=2;
r51m=0.5;
r61m=1;
r81m=0.5;
r101m=0.5;
r111m=1;

r11<=0.5;
r31<=0.5;
r41<=2;
r51<=0.5;
r61<=1;
r81<=0.5;
r101<=0.5;
r111<=1;

c1>=r11m - r11;
c3>=r31m - r21;
c4>=r41m - r41;
c5>=r51m - r51;
c6>=r61m - r61;
c8>=r81m - r81;
c10>=r101m - r10;
c11>=r111m - r11;

r12<=0.5-0.5c1;
r32<=0.5-0.5c3;
r42<=1-c4;
r52<=1-c5;
r62<=1-c6;
r82<=0.5-0.5c8;
r102<=0.5-0.5c10;
r112<=1-c11;

bin c1, c3, c4, c6, c8, c10, c11;
